data/lp_files/q3/53_7.lp
\ Model foo
\ LP format - for model browsing. Use MPS format to capture full model detail.
Minimize
  z
Subject To
 allocateEach[1]: x[1,1] + x[2,1] + x[3,1] = 1
 allocateEach[2]: x[1,2] + x[2,2] + x[3,2] = 1
 allocateEach[3]: x[1,3] + x[2,3] + x[3,3] = 1
 allocateEach[4]: x[1,4] + x[2,4] + x[3,4] = 1
 allocateEach[5]: x[1,5] + x[2,5] + x[3,5] = 1
 allocateEach[6]: x[1,6] + x[2,6] + x[3,6] = 1
 allocateEach[7]: x[1,7] + x[2,7] + x[3,7] = 1
 allocateEach[8]: x[1,8] + x[2,8] + x[3,8] = 1
 allocateEach[9]: x[1,9] + x[2,9] + x[3,9] = 1
 allocateEach[10]: x[1,10] + x[2,10] + x[3,10] = 1
 allocateEach[11]: x[1,11] + x[2,11] + x[3,11] = 1
 allocateEach[12]: x[1,12] + x[2,12] + x[3,12] = 1
 allocateEach[13]: x[1,13] + x[2,13] + x[3,13] = 1
 allocateAllCash: cashProportion[1] + cashProportion[2] + cashProportion[3]
   = 1
 findWorstP[1,2]: z + 0.0743900019837334 cashProportion[1]
   - 0.0743900019837334 cashProportion[2] + 0.078394663757191 x[1,1]
   + 0.0808123388216624 x[1,2] + 0.0266440190438405 x[1,3]
   + 0.1005504860146796 x[1,4] + 0.0669386034516961 x[1,5]
   + 0.0159442570918469 x[1,6] + 0.1033773060900615 x[1,7]
   + 0.0969549692521325 x[1,8] + 0.0657979567546122 x[1,9]
   + 0.1025218210672486 x[1,10] + 0.00436421344971236 x[1,11]
   + 0.1176229914699464 x[1,12] + 0.0656863717516366 x[1,13]
   - 0.078394663757191 x[2,1] - 0.0808123388216624 x[2,2]
   - 0.0266440190438405 x[2,3] - 0.1005504860146796 x[2,4]
   - 0.0669386034516961 x[2,5] - 0.0159442570918469 x[2,6]
   - 0.1033773060900615 x[2,7] - 0.0969549692521325 x[2,8]
   - 0.0657979567546122 x[2,9] - 0.1025218210672486 x[2,10]
   - 0.00436421344971236 x[2,11] - 0.1176229914699464 x[2,12]
   - 0.0656863717516366 x[2,13] >= 0
 findWorstP[1,3]: z + 0.0743900019837334 cashProportion[1]
   - 0.0743900019837334 cashProportion[3] + 0.078394663757191 x[1,1]
   + 0.0808123388216624 x[1,2] + 0.0266440190438405 x[1,3]
   + 0.1005504860146796 x[1,4] + 0.0669386034516961 x[1,5]
   + 0.0159442570918469 x[1,6] + 0.1033773060900615 x[1,7]
   + 0.0969549692521325 x[1,8] + 0.0657979567546122 x[1,9]
   + 0.1025218210672486 x[1,10] + 0.00436421344971236 x[1,11]
   + 0.1176229914699464 x[1,12] + 0.0656863717516366 x[1,13]
   - 0.078394663757191 x[3,1] - 0.0808123388216624 x[3,2]
   - 0.0266440190438405 x[3,3] - 0.1005504860146796 x[3,4]
   - 0.0669386034516961 x[3,5] - 0.0159442570918469 x[3,6]
   - 0.1033773060900615 x[3,7] - 0.0969549692521325 x[3,8]
   - 0.0657979567546122 x[3,9] - 0.1025218210672486 x[3,10]
   - 0.00436421344971236 x[3,11] - 0.1176229914699464 x[3,12]
   - 0.0656863717516366 x[3,13] >= 0
 findWorstP[2,1]: z - 0.096272644128171 cashProportion[1]
   + 0.096272644128171 cashProportion[2] - 0.1028191839288866 x[1,1]
   - 0.131219613946697 x[1,2] - 0.0136867609068883 x[1,3]
   - 0.032652471800138 x[1,4] - 0.123854756670892 x[1,5]
   - 0.0875439243938835 x[1,6] - 0.0362306050735683 x[1,7]
   - 0.0219180719798469 x[1,8] - 0.0747236172841487 x[1,9]
   - 0.0716428926720472 x[1,10] - 0.0678080323476084 x[1,11]
   - 0.0931598286346934 x[1,12] - 0.0464675962325305 x[1,13]
   + 0.1028191839288866 x[2,1] + 0.131219613946697 x[2,2]
   + 0.0136867609068883 x[2,3] + 0.032652471800138 x[2,4]
   + 0.123854756670892 x[2,5] + 0.0875439243938835 x[2,6]
   + 0.0362306050735683 x[2,7] + 0.0219180719798469 x[2,8]
   + 0.0747236172841487 x[2,9] + 0.0716428926720472 x[2,10]
   + 0.0678080323476084 x[2,11] + 0.0931598286346934 x[2,12]
   + 0.0464675962325305 x[2,13] >= 0
 findWorstP[2,3]: z + 0.096272644128171 cashProportion[2]
   - 0.096272644128171 cashProportion[3] + 0.1028191839288866 x[2,1]
   + 0.131219613946697 x[2,2] + 0.0136867609068883 x[2,3]
   + 0.032652471800138 x[2,4] + 0.123854756670892 x[2,5]
   + 0.0875439243938835 x[2,6] + 0.0362306050735683 x[2,7]
   + 0.0219180719798469 x[2,8] + 0.0747236172841487 x[2,9]
   + 0.0716428926720472 x[2,10] + 0.0678080323476084 x[2,11]
   + 0.0931598286346934 x[2,12] + 0.0464675962325305 x[2,13]
   - 0.1028191839288866 x[3,1] - 0.131219613946697 x[3,2]
   - 0.0136867609068883 x[3,3] - 0.032652471800138 x[3,4]
   - 0.123854756670892 x[3,5] - 0.0875439243938835 x[3,6]
   - 0.0362306050735683 x[3,7] - 0.0219180719798469 x[3,8]
   - 0.0747236172841487 x[3,9] - 0.0716428926720472 x[3,10]
   - 0.0678080323476084 x[3,11] - 0.0931598286346934 x[3,12]
   - 0.0464675962325305 x[3,13] >= 0
 findWorstP[3,1]: z - 0.0995767986059248 cashProportion[1]
   + 0.0995767986059248 cashProportion[3] - 0.0509003402207286 x[1,1]
   - 0.0442950792465356 x[1,2] - 0.142992282798108 x[1,3]
   - 0.0404115841009045 x[1,4] - 0.0402124305036926 x[1,5]
   - 0.000365115 x[1,6] - 0.1536967886482449 x[1,7]
   - 0.0401294498381877 x[1,8] - 0.0293751555887478 x[1,9]
   - 0.1585926479130362 x[1,10] - 0.0368766077503942 x[1,11]
   - 0.0808895527342129 x[1,12] - 0.0816861671230603 x[1,13]
   + 0.0509003402207286 x[3,1] + 0.0442950792465356 x[3,2]
   + 0.142992282798108 x[3,3] + 0.0404115841009045 x[3,4]
   + 0.0402124305036926 x[3,5] + 0.000365115 x[3,6]
   + 0.1536967886482449 x[3,7] + 0.0401294498381877 x[3,8]
   + 0.0293751555887478 x[3,9] + 0.1585926479130362 x[3,10]
   + 0.0368766077503942 x[3,11] + 0.0808895527342129 x[3,12]
   + 0.0816861671230603 x[3,13] >= 0
 findWorstP[3,2]: z - 0.0995767986059248 cashProportion[2]
   + 0.0995767986059248 cashProportion[3] - 0.0509003402207286 x[2,1]
   - 0.0442950792465356 x[2,2] - 0.142992282798108 x[2,3]
   - 0.0404115841009045 x[2,4] - 0.0402124305036926 x[2,5]
   - 0.000365115 x[2,6] - 0.1536967886482449 x[2,7]
   - 0.0401294498381877 x[2,8] - 0.0293751555887478 x[2,9]
   - 0.1585926479130362 x[2,10] - 0.0368766077503942 x[2,11]
   - 0.0808895527342129 x[2,12] - 0.0816861671230603 x[2,13]
   + 0.0509003402207286 x[3,1] + 0.0442950792465356 x[3,2]
   + 0.142992282798108 x[3,3] + 0.0404115841009045 x[3,4]
   + 0.0402124305036926 x[3,5] + 0.000365115 x[3,6]
   + 0.1536967886482449 x[3,7] + 0.0401294498381877 x[3,8]
   + 0.0293751555887478 x[3,9] + 0.1585926479130362 x[3,10]
   + 0.0368766077503942 x[3,11] + 0.0808895527342129 x[3,12]
   + 0.0816861671230603 x[3,13] >= 0
Bounds
 z <= 1
 -infinity <= cashProportion[1] <= 1
 -infinity <= cashProportion[2] <= 1
 -infinity <= cashProportion[3] <= 1
Binaries
 x[1,1] x[1,2] x[1,3] x[1,4] x[1,5] x[1,6] x[1,7] x[1,8] x[1,9] x[1,10]
 x[1,11] x[1,12] x[1,13] x[2,1] x[2,2] x[2,3] x[2,4] x[2,5] x[2,6] x[2,7]
 x[2,8] x[2,9] x[2,10] x[2,11] x[2,12] x[2,13] x[3,1] x[3,2] x[3,3] x[3,4]
 x[3,5] x[3,6] x[3,7] x[3,8] x[3,9] x[3,10] x[3,11] x[3,12] x[3,13]
End
