data/mps_files/q3/53_7.mps
NAME foo
ROWS
 N  OBJ
 E  allocateEach[1]
 E  allocateEach[2]
 E  allocateEach[3]
 E  allocateEach[4]
 E  allocateEach[5]
 E  allocateEach[6]
 E  allocateEach[7]
 E  allocateEach[8]
 E  allocateEach[9]
 E  allocateEach[10]
 E  allocateEach[11]
 E  allocateEach[12]
 E  allocateEach[13]
 E  allocateAllCash
 G  findWorstP[1,2]
 G  findWorstP[1,3]
 G  findWorstP[2,1]
 G  findWorstP[2,3]
 G  findWorstP[3,1]
 G  findWorstP[3,2]
COLUMNS
    z         OBJ       1
    z         findWorstP[1,2]  1
    z         findWorstP[1,3]  1
    z         findWorstP[2,1]  1
    z         findWorstP[2,3]  1
    z         findWorstP[3,1]  1
    z         findWorstP[3,2]  1
    cashProportion[1]  allocateAllCash  1
    cashProportion[1]  findWorstP[1,2]  0.0743900019837334
    cashProportion[1]  findWorstP[1,3]  0.0743900019837334
    cashProportion[1]  findWorstP[2,1]  -9.6272644128170978e-02
    cashProportion[1]  findWorstP[3,1]  -9.9576798605924818e-02
    cashProportion[2]  allocateAllCash  1
    cashProportion[2]  findWorstP[1,2]  -0.0743900019837334
    cashProportion[2]  findWorstP[2,1]  9.6272644128170978e-02
    cashProportion[2]  findWorstP[2,3]  9.6272644128170978e-02
    cashProportion[2]  findWorstP[3,2]  -9.9576798605924818e-02
    cashProportion[3]  allocateAllCash  1
    cashProportion[3]  findWorstP[1,3]  -0.0743900019837334
    cashProportion[3]  findWorstP[2,3]  -9.6272644128170978e-02
    cashProportion[3]  findWorstP[3,1]  9.9576798605924818e-02
    cashProportion[3]  findWorstP[3,2]  9.9576798605924818e-02
    MARKER    'MARKER'                 'INTORG'
    x[1,1]    allocateEach[1]  1
    x[1,1]    findWorstP[1,2]  7.8394663757191035e-02
    x[1,1]    findWorstP[1,3]  7.8394663757191035e-02
    x[1,1]    findWorstP[2,1]  -1.0281918392888660e-01
    x[1,1]    findWorstP[3,1]  -5.0900340220728556e-02
    x[1,2]    allocateEach[2]  1
    x[1,2]    findWorstP[1,2]  8.0812338821662374e-02
    x[1,2]    findWorstP[1,3]  8.0812338821662374e-02
    x[1,2]    findWorstP[2,1]  -1.3121961394669704e-01
    x[1,2]    findWorstP[3,1]  -4.4295079246535557e-02
    x[1,3]    allocateEach[3]  1
    x[1,3]    findWorstP[1,2]  2.6644019043840509e-02
    x[1,3]    findWorstP[1,3]  2.6644019043840509e-02
    x[1,3]    findWorstP[2,1]  -1.3686760906888307e-02
    x[1,3]    findWorstP[3,1]  -1.4299228279810802e-01
    x[1,4]    allocateEach[4]  1
    x[1,4]    findWorstP[1,2]  1.0055048601467964e-01
    x[1,4]    findWorstP[1,3]  1.0055048601467964e-01
    x[1,4]    findWorstP[2,1]  -3.2652471800137986e-02
    x[1,4]    findWorstP[3,1]  -4.0411584100904480e-02
    x[1,5]    allocateEach[5]  1
    x[1,5]    findWorstP[1,2]  0.0669386034516961
    x[1,5]    findWorstP[1,3]  0.0669386034516961
    x[1,5]    findWorstP[2,1]  -1.2385475667089196e-01
    x[1,5]    findWorstP[3,1]  -4.0212430503692630e-02
    x[1,6]    allocateEach[6]  1
    x[1,6]    findWorstP[1,2]  1.5944257091846856e-02
    x[1,6]    findWorstP[1,3]  1.5944257091846856e-02
    x[1,6]    findWorstP[2,1]  -8.7543924393883463e-02
    x[1,6]    findWorstP[3,1]  -3.6511492822172430e-04
    x[1,7]    allocateEach[7]  1
    x[1,7]    findWorstP[1,2]  1.0337730609006149e-01
    x[1,7]    findWorstP[1,3]  1.0337730609006149e-01
    x[1,7]    findWorstP[2,1]  -3.6230605073568345e-02
    x[1,7]    findWorstP[3,1]  -1.5369678864824493e-01
    x[1,8]    allocateEach[8]  1
    x[1,8]    findWorstP[1,2]  9.6954969252132511e-02
    x[1,8]    findWorstP[1,3]  9.6954969252132511e-02
    x[1,8]    findWorstP[2,1]  -2.1918071979846923e-02
    x[1,8]    findWorstP[3,1]  -0.0401294498381877
    x[1,9]    allocateEach[9]  1
    x[1,9]    findWorstP[1,2]  6.5797956754612169e-02
    x[1,9]    findWorstP[1,3]  6.5797956754612169e-02
    x[1,9]    findWorstP[2,1]  -0.0747236172841487
    x[1,9]    findWorstP[3,1]  -2.9375155588747814e-02
    x[1,10]   allocateEach[10]  1
    x[1,10]   findWorstP[1,2]  1.0252182106724855e-01
    x[1,10]   findWorstP[1,3]  1.0252182106724855e-01
    x[1,10]   findWorstP[2,1]  -7.1642892672047237e-02
    x[1,10]   findWorstP[3,1]  -1.5859264791303623e-01
    x[1,11]   allocateEach[11]  1
    x[1,11]   findWorstP[1,2]  4.3642134497123590e-03
    x[1,11]   findWorstP[1,3]  4.3642134497123590e-03
    x[1,11]   findWorstP[2,1]  -6.7808032347608418e-02
    x[1,11]   findWorstP[3,1]  -3.6876607750394155e-02
    x[1,12]   allocateEach[12]  1
    x[1,12]   findWorstP[1,2]  1.1762299146994644e-01
    x[1,12]   findWorstP[1,3]  1.1762299146994644e-01
    x[1,12]   findWorstP[2,1]  -9.3159828634693437e-02
    x[1,12]   findWorstP[3,1]  -8.0889552734212916e-02
    x[1,13]   allocateEach[13]  1
    x[1,13]   findWorstP[1,2]  6.5686371751636580e-02
    x[1,13]   findWorstP[1,3]  6.5686371751636580e-02
    x[1,13]   findWorstP[2,1]  -4.6467596232530523e-02
    x[1,13]   findWorstP[3,1]  -8.1686167123060316e-02
    x[2,1]    allocateEach[1]  1
    x[2,1]    findWorstP[1,2]  -7.8394663757191035e-02
    x[2,1]    findWorstP[2,1]  1.0281918392888660e-01
    x[2,1]    findWorstP[2,3]  1.0281918392888660e-01
    x[2,1]    findWorstP[3,2]  -5.0900340220728556e-02
    x[2,2]    allocateEach[2]  1
    x[2,2]    findWorstP[1,2]  -8.0812338821662374e-02
    x[2,2]    findWorstP[2,1]  1.3121961394669704e-01
    x[2,2]    findWorstP[2,3]  1.3121961394669704e-01
    x[2,2]    findWorstP[3,2]  -4.4295079246535557e-02
    x[2,3]    allocateEach[3]  1
    x[2,3]    findWorstP[1,2]  -2.6644019043840509e-02
    x[2,3]    findWorstP[2,1]  1.3686760906888307e-02
    x[2,3]    findWorstP[2,3]  1.3686760906888307e-02
    x[2,3]    findWorstP[3,2]  -1.4299228279810802e-01
    x[2,4]    allocateEach[4]  1
    x[2,4]    findWorstP[1,2]  -1.0055048601467964e-01
    x[2,4]    findWorstP[2,1]  3.2652471800137986e-02
    x[2,4]    findWorstP[2,3]  3.2652471800137986e-02
    x[2,4]    findWorstP[3,2]  -4.0411584100904480e-02
    x[2,5]    allocateEach[5]  1
    x[2,5]    findWorstP[1,2]  -0.0669386034516961
    x[2,5]    findWorstP[2,1]  1.2385475667089196e-01
    x[2,5]    findWorstP[2,3]  1.2385475667089196e-01
    x[2,5]    findWorstP[3,2]  -4.0212430503692630e-02
    x[2,6]    allocateEach[6]  1
    x[2,6]    findWorstP[1,2]  -1.5944257091846856e-02
    x[2,6]    findWorstP[2,1]  8.7543924393883463e-02
    x[2,6]    findWorstP[2,3]  8.7543924393883463e-02
    x[2,6]    findWorstP[3,2]  -3.6511492822172430e-04
    x[2,7]    allocateEach[7]  1
    x[2,7]    findWorstP[1,2]  -1.0337730609006149e-01
    x[2,7]    findWorstP[2,1]  3.6230605073568345e-02
    x[2,7]    findWorstP[2,3]  3.6230605073568345e-02
    x[2,7]    findWorstP[3,2]  -1.5369678864824493e-01
    x[2,8]    allocateEach[8]  1
    x[2,8]    findWorstP[1,2]  -9.6954969252132511e-02
    x[2,8]    findWorstP[2,1]  2.1918071979846923e-02
    x[2,8]    findWorstP[2,3]  2.1918071979846923e-02
    x[2,8]    findWorstP[3,2]  -0.0401294498381877
    x[2,9]    allocateEach[9]  1
    x[2,9]    findWorstP[1,2]  -6.5797956754612169e-02
    x[2,9]    findWorstP[2,1]  0.0747236172841487
    x[2,9]    findWorstP[2,3]  0.0747236172841487
    x[2,9]    findWorstP[3,2]  -2.9375155588747814e-02
    x[2,10]   allocateEach[10]  1
    x[2,10]   findWorstP[1,2]  -1.0252182106724855e-01
    x[2,10]   findWorstP[2,1]  7.1642892672047237e-02
    x[2,10]   findWorstP[2,3]  7.1642892672047237e-02
    x[2,10]   findWorstP[3,2]  -1.5859264791303623e-01
    x[2,11]   allocateEach[11]  1
    x[2,11]   findWorstP[1,2]  -4.3642134497123590e-03
    x[2,11]   findWorstP[2,1]  6.7808032347608418e-02
    x[2,11]   findWorstP[2,3]  6.7808032347608418e-02
    x[2,11]   findWorstP[3,2]  -3.6876607750394155e-02
    x[2,12]   allocateEach[12]  1
    x[2,12]   findWorstP[1,2]  -1.1762299146994644e-01
    x[2,12]   findWorstP[2,1]  9.3159828634693437e-02
    x[2,12]   findWorstP[2,3]  9.3159828634693437e-02
    x[2,12]   findWorstP[3,2]  -8.0889552734212916e-02
    x[2,13]   allocateEach[13]  1
    x[2,13]   findWorstP[1,2]  -6.5686371751636580e-02
    x[2,13]   findWorstP[2,1]  4.6467596232530523e-02
    x[2,13]   findWorstP[2,3]  4.6467596232530523e-02
    x[2,13]   findWorstP[3,2]  -8.1686167123060316e-02
    x[3,1]    allocateEach[1]  1
    x[3,1]    findWorstP[1,3]  -7.8394663757191035e-02
    x[3,1]    findWorstP[2,3]  -1.0281918392888660e-01
    x[3,1]    findWorstP[3,1]  5.0900340220728556e-02
    x[3,1]    findWorstP[3,2]  5.0900340220728556e-02
    x[3,2]    allocateEach[2]  1
    x[3,2]    findWorstP[1,3]  -8.0812338821662374e-02
    x[3,2]    findWorstP[2,3]  -1.3121961394669704e-01
    x[3,2]    findWorstP[3,1]  4.4295079246535557e-02
    x[3,2]    findWorstP[3,2]  4.4295079246535557e-02
    x[3,3]    allocateEach[3]  1
    x[3,3]    findWorstP[1,3]  -2.6644019043840509e-02
    x[3,3]    findWorstP[2,3]  -1.3686760906888307e-02
    x[3,3]    findWorstP[3,1]  1.4299228279810802e-01
    x[3,3]    findWorstP[3,2]  1.4299228279810802e-01
    x[3,4]    allocateEach[4]  1
    x[3,4]    findWorstP[1,3]  -1.0055048601467964e-01
    x[3,4]    findWorstP[2,3]  -3.2652471800137986e-02
    x[3,4]    findWorstP[3,1]  4.0411584100904480e-02
    x[3,4]    findWorstP[3,2]  4.0411584100904480e-02
    x[3,5]    allocateEach[5]  1
    x[3,5]    findWorstP[1,3]  -0.0669386034516961
    x[3,5]    findWorstP[2,3]  -1.2385475667089196e-01
    x[3,5]    findWorstP[3,1]  4.0212430503692630e-02
    x[3,5]    findWorstP[3,2]  4.0212430503692630e-02
    x[3,6]    allocateEach[6]  1
    x[3,6]    findWorstP[1,3]  -1.5944257091846856e-02
    x[3,6]    findWorstP[2,3]  -8.7543924393883463e-02
    x[3,6]    findWorstP[3,1]  3.6511492822172430e-04
    x[3,6]    findWorstP[3,2]  3.6511492822172430e-04
    x[3,7]    allocateEach[7]  1
    x[3,7]    findWorstP[1,3]  -1.0337730609006149e-01
    x[3,7]    findWorstP[2,3]  -3.6230605073568345e-02
    x[3,7]    findWorstP[3,1]  1.5369678864824493e-01
    x[3,7]    findWorstP[3,2]  1.5369678864824493e-01
    x[3,8]    allocateEach[8]  1
    x[3,8]    findWorstP[1,3]  -9.6954969252132511e-02
    x[3,8]    findWorstP[2,3]  -2.1918071979846923e-02
    x[3,8]    findWorstP[3,1]  0.0401294498381877
    x[3,8]    findWorstP[3,2]  0.0401294498381877
    x[3,9]    allocateEach[9]  1
    x[3,9]    findWorstP[1,3]  -6.5797956754612169e-02
    x[3,9]    findWorstP[2,3]  -0.0747236172841487
    x[3,9]    findWorstP[3,1]  2.9375155588747814e-02
    x[3,9]    findWorstP[3,2]  2.9375155588747814e-02
    x[3,10]   allocateEach[10]  1
    x[3,10]   findWorstP[1,3]  -1.0252182106724855e-01
    x[3,10]   findWorstP[2,3]  -7.1642892672047237e-02
    x[3,10]   findWorstP[3,1]  1.5859264791303623e-01
    x[3,10]   findWorstP[3,2]  1.5859264791303623e-01
    x[3,11]   allocateEach[11]  1
    x[3,11]   findWorstP[1,3]  -4.3642134497123590e-03
    x[3,11]   findWorstP[2,3]  -6.7808032347608418e-02
    x[3,11]   findWorstP[3,1]  3.6876607750394155e-02
    x[3,11]   findWorstP[3,2]  3.6876607750394155e-02
    x[3,12]   allocateEach[12]  1
    x[3,12]   findWorstP[1,3]  -1.1762299146994644e-01
    x[3,12]   findWorstP[2,3]  -9.3159828634693437e-02
    x[3,12]   findWorstP[3,1]  8.0889552734212916e-02
    x[3,12]   findWorstP[3,2]  8.0889552734212916e-02
    x[3,13]   allocateEach[13]  1
    x[3,13]   findWorstP[1,3]  -6.5686371751636580e-02
    x[3,13]   findWorstP[2,3]  -4.6467596232530523e-02
    x[3,13]   findWorstP[3,1]  8.1686167123060316e-02
    x[3,13]   findWorstP[3,2]  8.1686167123060316e-02
    MARKER    'MARKER'                 'INTEND'
RHS
    RHS1      allocateEach[1]  1
    RHS1      allocateEach[2]  1
    RHS1      allocateEach[3]  1
    RHS1      allocateEach[4]  1
    RHS1      allocateEach[5]  1
    RHS1      allocateEach[6]  1
    RHS1      allocateEach[7]  1
    RHS1      allocateEach[8]  1
    RHS1      allocateEach[9]  1
    RHS1      allocateEach[10]  1
    RHS1      allocateEach[11]  1
    RHS1      allocateEach[12]  1
    RHS1      allocateEach[13]  1
    RHS1      allocateAllCash  1
BOUNDS
 UP BND1      z         1
 MI BND1      cashProportion[1]
 UP BND1      cashProportion[1]  1
 MI BND1      cashProportion[2]
 UP BND1      cashProportion[2]  1
 MI BND1      cashProportion[3]
 UP BND1      cashProportion[3]  1
 BV BND1      x[1,1]  
 BV BND1      x[1,2]  
 BV BND1      x[1,3]  
 BV BND1      x[1,4]  
 BV BND1      x[1,5]  
 BV BND1      x[1,6]  
 BV BND1      x[1,7]  
 BV BND1      x[1,8]  
 BV BND1      x[1,9]  
 BV BND1      x[1,10] 
 BV BND1      x[1,11] 
 BV BND1      x[1,12] 
 BV BND1      x[1,13] 
 BV BND1      x[2,1]  
 BV BND1      x[2,2]  
 BV BND1      x[2,3]  
 BV BND1      x[2,4]  
 BV BND1      x[2,5]  
 BV BND1      x[2,6]  
 BV BND1      x[2,7]  
 BV BND1      x[2,8]  
 BV BND1      x[2,9]  
 BV BND1      x[2,10] 
 BV BND1      x[2,11] 
 BV BND1      x[2,12] 
 BV BND1      x[2,13] 
 BV BND1      x[3,1]  
 BV BND1      x[3,2]  
 BV BND1      x[3,3]  
 BV BND1      x[3,4]  
 BV BND1      x[3,5]  
 BV BND1      x[3,6]  
 BV BND1      x[3,7]  
 BV BND1      x[3,8]  
 BV BND1      x[3,9]  
 BV BND1      x[3,10] 
 BV BND1      x[3,11] 
 BV BND1      x[3,12] 
 BV BND1      x[3,13] 
ENDATA
